p cnf 13 26
-13 -11 -7 0
-13 11 4 0
-13 9 -6 0
13 9 1 0
-13 8 -7 0
13 7 3 0
-12 9 7 0
12 -8 -4 0
-12 -7 1 0
-12 -2 -1 0
-11 10 -7 0
11 -8 4 0
11 5 -3 0
11 3 -2 0
10 -7 3 0
-10 -7 2 0
-10 6 -4 0
9 2 1 0
8 7 6 0
-8 6 2 0
8 -6 1 0
7 -5 -3 0
7 5 2 0
7 3 2 0
6 4 -1 0
5 3 2 0
